0 23 77
1 15 91
2 37 98
3 100 104
4 97 108
5 107 112
6 110 112
7 113 113
8 97 113
9 112 113
10 100 112
11 97 115
12 105 117
13 65 117
14 50 115
15 106 113
16 83 112
17 103 110
18 99 110
19 63 109
20 97 109
21 103 108
22 38 108
23 102 106
24 103 104
25 94 103
26 90 103
27 98 102
28 76 99
29 100 102
30 80 104
31 80 103
32 99 101
33 6 100
34 62 100
35 65 99
36 4 98
37 97 97
38 94 100
39 104 104
40 2 102
41 1 102
42 97 103
43 84 102
44 102 102
45 73 101
46 97 101
47 98 99
48 92 98
49 76 99
50 73 98
51 92 97
52 80 94
53 64 92
54 87 91
55 90 91
56 84 89
57 87 88
58 75 87
59 80 84
60 52 85
61 81 83
62 76 81
63 77 78
64 54 78
65 70 79
66 72 78
67 73 77
68 75 75
69 72 73
70 73 74
71 69 74
72 77 77
73 68 76
74 73 75
75 62 74
76 66 72
77 46 71
78 54 68
79 54 66
80 65 65
81 61 61
82 52 60
83 59 60
84 56 58
85 52 55
86 51 55
87 54 57
88 42 56
89 50 55
90 38 55
91 51 57
92 31 54
93 38 53
94 32 53
95 22 52
96 38 49
97 26 47
98 41 45
99 38 43
100 40 44
101 35 42
102 41 41
103 39 39
104 37 38
105 16 38
106 35 36
107 34 35
108 27 34
109 35 35
110 28 34
111 30 35
112 25 35
113 19 36
114 28 34
115 28 31
116 23 29
117 18 27
118 26 26
119 13 26
120 24 25
121 14 24
122 8 24
123 20 23
124 19 20
125 18 20
126 13 19
127 17 17
128 15 17
129 7 18
130 7 16
131 11 14
132 12 13
133 4 12
134 14 14
135 7 12
136 12 14
137 14 14
138 10 12
139 11 12
140 11 12
141 11 11
142 10 10
143 8 10
144 1 9
145 7 7
146 2 6
147 5 6
148 5 6
149 1 3
150 1 1

